8 
1 
5 
1 
5 
5 
2 
6 
5 
6 
10 
8 
6 
11 
5 
8 
1 
7 
2 
2 
5 
5 
4 
6 
6 
5 
5 
3 
10 
7 
8 
7 
10 
5 
2 
7 
6 
10 
8 
3 
4 
4 
2 
11 
4 
4 
8 
4 
8 
8 
6 
8 
6 
7 
4 
6 
5 
5 
7 
7 
9 
6 
2 
5 
5 
6 
3 
7 
3 
8 
1 
6 
12 
7 
9 
11 
6 
6 
4 
6 
1 
6 
2 
3 
9 
4 
9 
7 
4 
11 
5 
3 
6 
3 
7 
2 
5 
9 
5 
6 
